week_2_practice_questions.sol
# Solution for model basic_model
# Objective value = 140
X 1
Y 0
